c File: data_files/evolved_graphs/g6219.col
c
c Auto generated graph
c
p edge 100 491
e 1 44
e 1 51
e 1 54
e 1 55
e 1 56
e 1 57
e 1 65
e 1 66
e 1 67
e 1 68
e 1 69
e 1 70
e 1 71
e 1 72
e 1 73
e 1 74
e 1 75
e 1 83
e 1 85
e 1 86
e 1 98
e 2 31
e 2 43
e 2 52
e 2 54
e 2 55
e 2 56
e 2 57
e 2 65
e 2 66
e 2 67
e 2 68
e 2 69
e 2 70
e 2 71
e 2 72
e 2 73
e 2 74
e 2 75
e 2 91
e 2 98
e 3 43
e 3 46
e 3 52
e 3 54
e 3 55
e 3 56
e 3 57
e 3 65
e 3 66
e 3 67
e 3 68
e 3 69
e 3 70
e 3 71
e 3 72
e 3 73
e 3 74
e 3 75
e 3 98
e 3 100
e 4 38
e 4 42
e 4 50
e 4 53
e 4 54
e 4 65
e 4 66
e 4 67
e 4 69
e 4 70
e 4 71
e 4 72
e 4 73
e 4 74
e 4 75
e 5 25
e 5 26
e 5 27
e 5 28
e 5 29
e 5 31
e 5 34
e 5 37
e 5 41
e 5 44
e 5 57
e 5 63
e 5 98
e 6 24
e 6 25
e 6 26
e 6 27
e 6 28
e 6 29
e 6 34
e 6 40
e 6 44
e 6 56
e 6 99
e 7 25
e 7 26
e 7 27
e 7 28
e 7 29
e 7 33
e 7 35
e 7 37
e 7 54
e 7 59
e 7 82
e 8 24
e 8 25
e 8 26
e 8 27
e 8 28
e 8 29
e 8 36
e 8 41
e 8 51
e 8 56
e 8 58
e 8 60
e 8 61
e 8 62
e 8 63
e 8 64
e 9 24
e 9 25
e 9 26
e 9 27
e 9 28
e 9 29
e 9 31
e 9 32
e 9 36
e 9 37
e 9 40
e 9 41
e 9 47
e 9 48
e 9 53
e 9 54
e 9 55
e 9 56
e 9 57
e 9 58
e 9 59
e 9 60
e 9 61
e 9 62
e 9 63
e 10 25
e 10 26
e 10 27
e 10 28
e 10 29
e 10 39
e 10 47
e 10 51
e 10 53
e 11 25
e 11 26
e 11 27
e 11 28
e 11 29
e 11 36
e 11 37
e 11 39
e 11 42
e 11 50
e 12 25
e 12 26
e 12 27
e 12 28
e 12 29
e 12 34
e 12 41
e 12 45
e 12 46
e 12 54
e 12 55
e 12 56
e 12 57
e 12 58
e 12 59
e 12 60
e 12 61
e 12 62
e 12 63
e 13 25
e 13 26
e 13 27
e 13 28
e 13 29
e 13 48
e 13 54
e 13 55
e 13 56
e 13 57
e 13 58
e 13 59
e 13 64
e 13 93
e 14 25
e 14 26
e 14 27
e 14 28
e 14 29
e 14 43
e 14 51
e 14 54
e 14 55
e 14 56
e 14 57
e 14 58
e 14 59
e 14 64
e 14 77
e 14 100
e 15 25
e 15 26
e 15 27
e 15 28
e 15 29
e 15 33
e 15 37
e 15 38
e 15 42
e 15 54
e 15 55
e 15 56
e 15 57
e 15 58
e 15 59
e 15 60
e 15 61
e 15 62
e 15 63
e 15 64
e 15 100
e 16 33
e 16 46
e 16 48
e 16 50
e 16 51
e 16 54
e 16 55
e 16 56
e 16 57
e 16 58
e 16 59
e 16 60
e 16 61
e 16 62
e 16 77
e 16 80
e 16 83
e 16 85
e 16 86
e 16 87
e 16 100
e 17 30
e 17 31
e 17 32
e 17 33
e 17 37
e 17 38
e 17 39
e 17 40
e 17 41
e 17 42
e 17 54
e 17 55
e 17 56
e 17 57
e 17 58
e 17 59
e 17 60
e 17 61
e 17 62
e 17 63
e 17 76
e 17 78
e 17 81
e 17 85
e 17 86
e 17 94
e 17 95
e 18 30
e 18 31
e 18 32
e 18 33
e 18 37
e 18 38
e 18 39
e 18 40
e 18 41
e 18 42
e 18 50
e 18 54
e 18 55
e 18 56
e 18 57
e 18 58
e 18 59
e 18 60
e 18 61
e 18 62
e 18 63
e 18 78
e 18 80
e 18 84
e 18 85
e 19 30
e 19 31
e 19 32
e 19 33
e 19 37
e 19 38
e 19 39
e 19 40
e 19 41
e 19 42
e 19 54
e 19 55
e 19 56
e 19 57
e 19 58
e 19 59
e 19 60
e 19 61
e 19 62
e 19 63
e 19 64
e 19 76
e 19 81
e 19 82
e 19 89
e 19 97
e 20 30
e 20 31
e 20 32
e 20 33
e 20 37
e 20 38
e 20 39
e 20 40
e 20 41
e 20 42
e 20 54
e 20 56
e 20 57
e 20 58
e 20 60
e 20 61
e 20 62
e 20 63
e 20 64
e 20 81
e 20 99
e 21 30
e 21 31
e 21 32
e 21 33
e 21 37
e 21 38
e 21 39
e 21 40
e 21 41
e 21 42
e 21 54
e 21 55
e 21 56
e 21 57
e 21 58
e 21 60
e 21 61
e 21 62
e 21 63
e 21 64
e 21 81
e 22 30
e 22 31
e 22 32
e 22 33
e 22 37
e 22 38
e 22 39
e 22 40
e 22 41
e 22 42
e 22 52
e 22 54
e 22 55
e 22 56
e 22 57
e 22 58
e 22 59
e 22 60
e 22 61
e 22 62
e 22 63
e 22 64
e 22 76
e 22 82
e 22 86
e 22 87
e 23 30
e 23 31
e 23 32
e 23 33
e 23 37
e 23 38
e 23 39
e 23 40
e 23 41
e 23 42
e 23 54
e 23 55
e 23 56
e 23 57
e 23 58
e 23 59
e 23 60
e 23 61
e 23 62
e 23 63
e 23 64
e 23 80
e 23 82
e 24 26
e 24 30
e 24 31
e 24 32
e 24 33
e 24 37
e 24 38
e 24 39
e 24 40
e 24 41
e 24 42
e 24 54
e 24 55
e 24 56
e 24 57
e 24 59
e 24 60
e 24 61
e 24 62
e 24 63
e 24 64
e 24 65
e 24 66
e 24 67
e 25 79
e 25 81
e 25 84
e 31 67
e 32 77
e 32 90
e 34 82
e 34 88
e 39 86
e 42 97
e 43 89
e 44 88
e 45 82
e 45 93
e 45 97
e 46 96
e 48 88
e 48 100
e 49 76
e 49 77
e 52 79
e 52 90
e 57 78
e 60 77
e 63 98
e 68 84
e 69 99
e 70 78
e 70 84
e 71 82
e 71 93
e 72 79
e 73 81
e 73 99
e 74 76
e 75 79
